%SETS
JOBS     = 1..2;
MACHINES = 1..15;
SPEED    = 1;

time               = array3d(JOBS,MACHINES,1..SPEED,[17, 11, 84, 80, 88, 98, 81, 51, 80, 20, 67, 22, 95, 56, 47, 33, 79, 51, 61, 11, 65, 65, 65, 94, 71, 42, 49, 72, 15, 70]);
energy             = array3d(JOBS,MACHINES,1..SPEED,[84, 89, 43, 44, 41, 37, 44, 60, 44, 81, 51, 80, 38, 57, 62, 71, 45, 60, 54, 89, 52, 52, 52, 39, 49, 65, 61, 48, 86, 49]);
precedence         = array2d(JOBS,MACHINES,[10,6,12,9,7,8,0,14,1,3,2,13,5,11,4,4,3,6,12,14,5,1,2,9,0,8,10,7,11,13]);